n = 25;
lu = [|-470, 497
      |83, 600
      |-34, 615
      |-448, 420
      |79, 179
      |-587, 225
      |-559, -413
      |-165, 285
      |-450, 90
      |49, 394
      |485, 619
      |-217, 234
      |-276, 290
      |-176, 263
      |210, 527
      |-223, 447
      |240, 488
      |-56, -14
      |-175, 423
      |216, 342
      |-331, 431
      |-13, 3
      |340, 577
      |-422, 188
      |-341, 127|];
